\ This file has been generated by DOcplex
\ ENCODING=ISO-8859-1
\Problem name: rmp

Minimize
 obj: x_0 + x_1 + x_2 + x_3 + x_4 + x_5 + x_6 + x_7 + x_8 + x_9 + x_10 + x_11
      + x_12 + x_13 + x_14 + x_15 + x_16 + x_17
Subject To
 c1: 2 x_0 >= 4
 c2: 2 x_1 >= 4
 c3: x_2 + x_14 >= 2
 c4: 3 x_3 >= 4
 c5: 2 x_4 + 2 x_16 >= 4
 c6: 4 x_5 >= 2
 c7: 3 x_6 >= 2
 c8: 3 x_7 + x_15 + x_16 + x_17 >= 4
 c9: 2 x_8 + 2 x_17 >= 2
 c10: 2 x_9 + x_14 + 2 x_15 >= 4
 c11: 2 x_10 >= 4
 c12: 2 x_11 >= 2
 c13: 48 x_12 + 2 x_14 + 2 x_16 >= 12
 c14: 30 x_13 + 2 x_15 >= 5

Bounds
End
